15 965
525 7 445 7 264 7 63 9 889 11 721 18
525 7 479 7 358 7 163 9 10 11 784 18
525 7 479 7 355 7 106 9 927 13
521 7 475 7 329 11
525 7 482 7 394 7 212 9 29 11 822 15 623 21
525 7 482 7 394 7 212 9 29 11 822 15 623 21
525 7 477 7 390 7 241 9 75 11 912 15 777 22
525 7 446 7 267 7 66 9 891 11 731 18
525 7 482 7 358 7 165 12
533 7
533 7
533 7
533 7
533 7
533 7
